# liquid Ar equilibration - Procedure #1 ambient MD 
#
#
#
#

clear
units real #T in K, E in kcal/mol, dist in Ang
boundary p p p
atom_style atomic
read_data       Ar.dat

pair_style      lj/cut 6.5 #use half-box length cutoff
pair_coeff * * 0.2498 3.345 #check units in kcal/mol and Ang


dump coord all custom 1 argon.dump id type x y z #needs to be modified, from minimization
dump_modify coord sort id
dump video2 all atom 64 dump.Ar.lammpstrj

minimize 1e-25 1e-25 10000 10000

velocity all create 87.2 123456  dist gaussian #creates an initial gaussian distribution of velocities to yield 300K

fix 1 all nvt temp 87.2 87.2 0.1 #starting and ending temp with fix command, what does the 0.1 mean? Tdamp - check it out in the fix nvt documentation on the website.

timestep 1.0 #units of fs

thermo 5  #report the temperature (and P and E) every 5 steps

run 1000
